c This is an instance of the exact track of PACE 2020 Challenge, see https://pacechallenge.org/2020/ 
c TYPE: biology 
c ORIGIN: http://www.genome.jp/kegg/ 
c DESCRIPTION: This is a graph derived from a biological pathway map. The nodes are genes (also representing their associated proteins), enzymes, or chemical compounds, and there is an edge between two nodes if they influence each other (such as a gene modifying the expression of another gene) or take part in a common chemical reaction. This graph is a connected part of the map "mrt01110 Biosynthesis of secondary metabolites - Malassezia restricta". 
p tdp 167 213
61 63
61 62
61 3
116 117
116 115
117 118
141 142
141 18
142 140
142 113
142 112
65 66
65 64
66 67
104 105
104 103
105 106
93 94
93 100
93 92
94 165
94 95
8 76
8 9
8 77
8 10
76 75
76 77
71 72
71 70
72 73
26 28
26 24
28 27
40 41
40 39
41 42
114 115
114 155
114 113
162 163
162 161
163 164
1 140
1 9
1 2
140 88
140 6
140 112
140 7
140 113
18 19
18 14
19 20
73 74
73 79
34 35
34 33
34 23
34 20
34 32
35 20
35 31
35 36
35 32
110 111
110 109
23 156
23 22
23 24
23 33
23 27
23 32
23 20
156 157
95 96
96 97
75 60
75 155
123 124
123 122
124 3
108 109
108 106
108 3
90 91
90 113
91 92
6 7
6 11
6 5
7 88
7 113
7 11
7 10
20 32
20 21
20 33
20 22
31 159
31 30
31 32
159 161
159 160
150 151
150 146
150 149
151 152
151 154
151 146
118 119
119 120
24 27
24 25
27 29
106 138
106 3
106 107
138 136
14 13
125 126
125 36
126 127
50 51
50 49
51 83
103 12
36 64
88 89
88 87
88 113
29 30
4 5
4 3
4 2
37 38
37 13
37 33
38 39
12 112
12 3
12 13
112 113
3 15
3 139
3 2
3 62
32 33
53 55
53 59
53 54
53 135
53 78
53 2
55 54
55 56
55 9
146 149
146 147
146 167
149 153
149 148
46 52
46 45
128 129
128 127
129 130
33 13
161 160
80 81
80 79
85 86
85 84
86 87
113 143
153 152
100 101
15 16
16 17
136 135
136 137
22 21
9 56
54 57
13 2
21 145
165 166
59 60
48 49
48 47
69 70
69 68
56 57
132 133
132 131
133 134
135 137
42 43
43 44
43 47
57 58
57 82
148 147
145 167
121 122
45 44
101 102
98 99
98 97
131 130
82 144
68 67
157 158
